c description: Graph 4-Colorability of graph: 
c generator: CNFgen (0.9.0)
c copyright: (C) 2012-2020 Massimo Lauria <massimo.lauria@uniroma1.it>
c url: https://massimolauria.net/cnfgen
c
p cnf 80 380
1 2 3 4 0
-1 -2 0
-1 -3 0
-1 -4 0
-2 -3 0
-2 -4 0
-3 -4 0
5 6 7 8 0
-5 -6 0
-5 -7 0
-5 -8 0
-6 -7 0
-6 -8 0
-7 -8 0
9 10 11 12 0
-9 -10 0
-9 -11 0
-9 -12 0
-10 -11 0
-10 -12 0
-11 -12 0
13 14 15 16 0
-13 -14 0
-13 -15 0
-13 -16 0
-14 -15 0
-14 -16 0
-15 -16 0
17 18 19 20 0
-17 -18 0
-17 -19 0
-17 -20 0
-18 -19 0
-18 -20 0
-19 -20 0
21 22 23 24 0
-21 -22 0
-21 -23 0
-21 -24 0
-22 -23 0
-22 -24 0
-23 -24 0
25 26 27 28 0
-25 -26 0
-25 -27 0
-25 -28 0
-26 -27 0
-26 -28 0
-27 -28 0
29 30 31 32 0
-29 -30 0
-29 -31 0
-29 -32 0
-30 -31 0
-30 -32 0
-31 -32 0
33 34 35 36 0
-33 -34 0
-33 -35 0
-33 -36 0
-34 -35 0
-34 -36 0
-35 -36 0
37 38 39 40 0
-37 -38 0
-37 -39 0
-37 -40 0
-38 -39 0
-38 -40 0
-39 -40 0
41 42 43 44 0
-41 -42 0
-41 -43 0
-41 -44 0
-42 -43 0
-42 -44 0
-43 -44 0
45 46 47 48 0
-45 -46 0
-45 -47 0
-45 -48 0
-46 -47 0
-46 -48 0
-47 -48 0
49 50 51 52 0
-49 -50 0
-49 -51 0
-49 -52 0
-50 -51 0
-50 -52 0
-51 -52 0
53 54 55 56 0
-53 -54 0
-53 -55 0
-53 -56 0
-54 -55 0
-54 -56 0
-55 -56 0
57 58 59 60 0
-57 -58 0
-57 -59 0
-57 -60 0
-58 -59 0
-58 -60 0
-59 -60 0
61 62 63 64 0
-61 -62 0
-61 -63 0
-61 -64 0
-62 -63 0
-62 -64 0
-63 -64 0
65 66 67 68 0
-65 -66 0
-65 -67 0
-65 -68 0
-66 -67 0
-66 -68 0
-67 -68 0
69 70 71 72 0
-69 -70 0
-69 -71 0
-69 -72 0
-70 -71 0
-70 -72 0
-71 -72 0
73 74 75 76 0
-73 -74 0
-73 -75 0
-73 -76 0
-74 -75 0
-74 -76 0
-75 -76 0
77 78 79 80 0
-77 -78 0
-77 -79 0
-77 -80 0
-78 -79 0
-78 -80 0
-79 -80 0
-1 -21 0
-2 -22 0
-3 -23 0
-4 -24 0
-1 -25 0
-2 -26 0
-3 -27 0
-4 -28 0
-1 -29 0
-2 -30 0
-3 -31 0
-4 -32 0
-1 -37 0
-2 -38 0
-3 -39 0
-4 -40 0
-1 -49 0
-2 -50 0
-3 -51 0
-4 -52 0
-1 -53 0
-2 -54 0
-3 -55 0
-4 -56 0
-1 -73 0
-2 -74 0
-3 -75 0
-4 -76 0
-5 -17 0
-6 -18 0
-7 -19 0
-8 -20 0
-5 -25 0
-6 -26 0
-7 -27 0
-8 -28 0
-5 -53 0
-6 -54 0
-7 -55 0
-8 -56 0
-5 -61 0
-6 -62 0
-7 -63 0
-8 -64 0
-5 -65 0
-6 -66 0
-7 -67 0
-8 -68 0
-5 -69 0
-6 -70 0
-7 -71 0
-8 -72 0
-9 -13 0
-10 -14 0
-11 -15 0
-12 -16 0
-9 -29 0
-10 -30 0
-11 -31 0
-12 -32 0
-9 -33 0
-10 -34 0
-11 -35 0
-12 -36 0
-9 -41 0
-10 -42 0
-11 -43 0
-12 -44 0
-9 -57 0
-10 -58 0
-11 -59 0
-12 -60 0
-9 -61 0
-10 -62 0
-11 -63 0
-12 -64 0
-9 -77 0
-10 -78 0
-11 -79 0
-12 -80 0
-13 -17 0
-14 -18 0
-15 -19 0
-16 -20 0
-13 -29 0
-14 -30 0
-15 -31 0
-16 -32 0
-13 -61 0
-14 -62 0
-15 -63 0
-16 -64 0
-13 -65 0
-14 -66 0
-15 -67 0
-16 -68 0
-13 -69 0
-14 -70 0
-15 -71 0
-16 -72 0
-13 -73 0
-14 -74 0
-15 -75 0
-16 -76 0
-13 -77 0
-14 -78 0
-15 -79 0
-16 -80 0
-17 -33 0
-18 -34 0
-19 -35 0
-20 -36 0
-17 -45 0
-18 -46 0
-19 -47 0
-20 -48 0
-17 -61 0
-18 -62 0
-19 -63 0
-20 -64 0
-17 -77 0
-18 -78 0
-19 -79 0
-20 -80 0
-21 -29 0
-22 -30 0
-23 -31 0
-24 -32 0
-21 -33 0
-22 -34 0
-23 -35 0
-24 -36 0
-21 -45 0
-22 -46 0
-23 -47 0
-24 -48 0
-21 -53 0
-22 -54 0
-23 -55 0
-24 -56 0
-21 -61 0
-22 -62 0
-23 -63 0
-24 -64 0
-21 -73 0
-22 -74 0
-23 -75 0
-24 -76 0
-25 -57 0
-26 -58 0
-27 -59 0
-28 -60 0
-25 -61 0
-26 -62 0
-27 -63 0
-28 -64 0
-25 -69 0
-26 -70 0
-27 -71 0
-28 -72 0
-25 -73 0
-26 -74 0
-27 -75 0
-28 -76 0
-25 -77 0
-26 -78 0
-27 -79 0
-28 -80 0
-29 -61 0
-30 -62 0
-31 -63 0
-32 -64 0
-29 -65 0
-30 -66 0
-31 -67 0
-32 -68 0
-29 -73 0
-30 -74 0
-31 -75 0
-32 -76 0
-29 -77 0
-30 -78 0
-31 -79 0
-32 -80 0
-33 -73 0
-34 -74 0
-35 -75 0
-36 -76 0
-33 -77 0
-34 -78 0
-35 -79 0
-36 -80 0
-37 -69 0
-38 -70 0
-39 -71 0
-40 -72 0
-41 -61 0
-42 -62 0
-43 -63 0
-44 -64 0
-41 -73 0
-42 -74 0
-43 -75 0
-44 -76 0
-45 -53 0
-46 -54 0
-47 -55 0
-48 -56 0
-45 -61 0
-46 -62 0
-47 -63 0
-48 -64 0
-49 -69 0
-50 -70 0
-51 -71 0
-52 -72 0
-53 -65 0
-54 -66 0
-55 -67 0
-56 -68 0
-57 -69 0
-58 -70 0
-59 -71 0
-60 -72 0
-61 -65 0
-62 -66 0
-63 -67 0
-64 -68 0
-61 -69 0
-62 -70 0
-63 -71 0
-64 -72 0
-61 -77 0
-62 -78 0
-63 -79 0
-64 -80 0
-73 -77 0
-74 -78 0
-75 -79 0
-76 -80 0